g3 1 1 0	# problem unknown
 100 0 1 0 0 	# vars, constraints, objectives, ranges, eqns
 0 1 0 0 0 0	# nonlinear constrs, objs; ccons: lin, nonlin, nd, nzlb
 0 0	# network constraints: nonlinear, linear
 0 100 0 	# nonlinear vars in constraints, objectives, both
 0 0 0 1	# linear network variables; functions; arith, flags
 0 0 0 0 0 	# discrete variables: binary, integer, nonlinear (b,c,o)
 0 100 	# nonzeros in Jacobian, obj. gradient
 0 0	# max name lengths: constraints, variables
 0 0 0 0 0	# common exprs: b,c,o,c1,o1
O0 0
o54
26
o2
n0.5
o5
o54
3
v0
v1
v2
n2
o5
o54
3
v1
v3
v5
n2
o2
n1.5
o5
o54
3
v2
v5
v8
n2
o2
n2.0
o5
o54
3
v3
v7
v11
n2
o2
n2.5
o5
o54
3
v4
v9
v14
n2
o2
n3.0
o5
o54
3
v5
v11
v17
n2
o2
n3.5
o5
o54
3
v6
v13
v20
n2
o2
n4.0
o5
o54
3
v7
v15
v23
n2
o2
n4.5
o5
o54
3
v8
v17
v26
n2
o2
n5.0
o5
o54
3
v9
v19
v29
n2
o2
n5.5
o5
o54
3
v10
v21
v32
n2
o2
n6.0
o5
o54
3
v11
v23
v35
n2
o2
n6.5
o5
o54
3
v12
v25
v38
n2
o2
n7.0
o5
o54
3
v13
v27
v41
n2
o2
n7.5
o5
o54
3
v14
v29
v44
n2
o2
n8.0
o5
o54
3
v15
v31
v47
n2
o2
n8.5
o5
o54
3
v16
v33
v50
n2
o2
n9.0
o5
o54
3
v17
v35
v53
n2
o2
n9.5
o5
o54
3
v18
v37
v56
n2
o2
n10.0
o5
o54
3
v19
v39
v59
n2
o2
n10.5
o5
o54
3
v20
v41
v62
n2
o2
n11.0
o5
o54
3
v21
v43
v65
n2
o2
n11.5
o5
o54
3
v22
v45
v68
n2
o2
n12.0
o5
o54
3
v23
v47
v71
n2
o2
n12.5
o5
o54
3
v24
v49
v74
n2
o54
75
o2
n-13.0
o5
o54
3
v25
v51
v77
n2
o2
n-13.5
o5
o54
3
v26
v53
v80
n2
o2
n-14.0
o5
o54
3
v27
v55
v83
n2
o2
n-14.5
o5
o54
3
v28
v57
v86
n2
o2
n-15.0
o5
o54
3
v29
v59
v89
n2
o2
n-15.5
o5
o54
3
v30
v61
v92
n2
o2
n-16.0
o5
o54
3
v31
v63
v95
n2
o2
n-16.5
o5
o54
3
v32
v65
v98
n2
o2
n-17.0
o5
o54
3
v33
v67
v1
n2
o2
n-17.5
o5
o54
3
v34
v69
v4
n2
o2
n-18.0
o5
o54
3
v35
v71
v7
n2
o2
n-18.5
o5
o54
3
v36
v73
v10
n2
o2
n-19.0
o5
o54
3
v37
v75
v13
n2
o2
n-19.5
o5
o54
3
v38
v77
v16
n2
o2
n-20.0
o5
o54
3
v39
v79
v19
n2
o2
n-20.5
o5
o54
3
v40
v81
v22
n2
o2
n-21.0
o5
o54
3
v41
v83
v25
n2
o2
n-21.5
o5
o54
3
v42
v85
v28
n2
o2
n-22.0
o5
o54
3
v43
v87
v31
n2
o2
n-22.5
o5
o54
3
v44
v89
v34
n2
o2
n-23.0
o5
o54
3
v45
v91
v37
n2
o2
n-23.5
o5
o54
3
v46
v93
v40
n2
o2
n-24.0
o5
o54
3
v47
v95
v43
n2
o2
n-24.5
o5
o54
3
v48
v97
v46
n2
o2
n-25.0
o5
o54
3
v49
v99
v49
n2
o2
n-25.5
o5
o54
3
v50
v1
v52
n2
o2
n-26.0
o5
o54
3
v51
v3
v55
n2
o2
n-26.5
o5
o54
3
v52
v5
v58
n2
o2
n-27.0
o5
o54
3
v53
v7
v61
n2
o2
n-27.5
o5
o54
3
v54
v9
v64
n2
o2
n-28.0
o5
o54
3
v55
v11
v67
n2
o2
n-28.5
o5
o54
3
v56
v13
v70
n2
o2
n-29.0
o5
o54
3
v57
v15
v73
n2
o2
n-29.5
o5
o54
3
v58
v17
v76
n2
o2
n-30.0
o5
o54
3
v59
v19
v79
n2
o2
n-30.5
o5
o54
3
v60
v21
v82
n2
o2
n-31.0
o5
o54
3
v61
v23
v85
n2
o2
n-31.5
o5
o54
3
v62
v25
v88
n2
o2
n-32.0
o5
o54
3
v63
v27
v91
n2
o2
n-32.5
o5
o54
3
v64
v29
v94
n2
o2
n-33.0
o5
o54
3
v65
v31
v97
n2
o2
n-33.5
o5
o54
3
v66
v33
v0
n2
o2
n-34.0
o5
o54
3
v67
v35
v3
n2
o2
n-34.5
o5
o54
3
v68
v37
v6
n2
o2
n-35.0
o5
o54
3
v69
v39
v9
n2
o2
n-35.5
o5
o54
3
v70
v41
v12
n2
o2
n-36.0
o5
o54
3
v71
v43
v15
n2
o2
n-36.5
o5
o54
3
v72
v45
v18
n2
o2
n-37.0
o5
o54
3
v73
v47
v21
n2
o2
n-37.5
o5
o54
3
v74
v49
v24
n2
o2
n-38.0
o5
o54
3
v75
v51
v27
n2
o2
n-38.5
o5
o54
3
v76
v53
v30
n2
o2
n-39.0
o5
o54
3
v77
v55
v33
n2
o2
n-39.5
o5
o54
3
v78
v57
v36
n2
o2
n-40.0
o5
o54
3
v79
v59
v39
n2
o2
n-40.5
o5
o54
3
v80
v61
v42
n2
o2
n-41.0
o5
o54
3
v81
v63
v45
n2
o2
n-41.5
o5
o54
3
v82
v65
v48
n2
o2
n-42.0
o5
o54
3
v83
v67
v51
n2
o2
n-42.5
o5
o54
3
v84
v69
v54
n2
o2
n-43.0
o5
o54
3
v85
v71
v57
n2
o2
n-43.5
o5
o54
3
v86
v73
v60
n2
o2
n-44.0
o5
o54
3
v87
v75
v63
n2
o2
n-44.5
o5
o54
3
v88
v77
v66
n2
o2
n-45.0
o5
o54
3
v89
v79
v69
n2
o2
n-45.5
o5
o54
3
v90
v81
v72
n2
o2
n-46.0
o5
o54
3
v91
v83
v75
n2
o2
n-46.5
o5
o54
3
v92
v85
v78
n2
o2
n-47.0
o5
o54
3
v93
v87
v81
n2
o2
n-47.5
o5
o54
3
v94
v89
v84
n2
o2
n-48.0
o5
o54
3
v95
v91
v87
n2
o2
n-48.5
o5
o54
3
v96
v93
v90
n2
o2
n-49.0
o5
o54
3
v97
v95
v93
n2
o2
n-49.5
o5
o54
3
v98
v97
v96
n2
o2
n-50.0
o5
o54
3
v99
v99
v99
n2
x100
0 0.5
1 0.5
2 0.5
3 0.5
4 0.5
5 0.5
6 0.5
7 0.5
8 0.5
9 0.5
10 0.5
11 0.5
12 0.5
13 0.5
14 0.5
15 0.5
16 0.5
17 0.5
18 0.5
19 0.5
20 0.5
21 0.5
22 0.5
23 0.5
24 0.5
25 0.5
26 0.5
27 0.5
28 0.5
29 0.5
30 0.5
31 0.5
32 0.5
33 0.5
34 0.5
35 0.5
36 0.5
37 0.5
38 0.5
39 0.5
40 0.5
41 0.5
42 0.5
43 0.5
44 0.5
45 0.5
46 0.5
47 0.5
48 0.5
49 0.5
50 0.5
51 0.5
52 0.5
53 0.5
54 0.5
55 0.5
56 0.5
57 0.5
58 0.5
59 0.5
60 0.5
61 0.5
62 0.5
63 0.5
64 0.5
65 0.5
66 0.5
67 0.5
68 0.5
69 0.5
70 0.5
71 0.5
72 0.5
73 0.5
74 0.5
75 0.5
76 0.5
77 0.5
78 0.5
79 0.5
80 0.5
81 0.5
82 0.5
83 0.5
84 0.5
85 0.5
86 0.5
87 0.5
88 0.5
89 0.5
90 0.5
91 0.5
92 0.5
93 0.5
94 0.5
95 0.5
96 0.5
97 0.5
98 0.5
99 0.5
r
b
0 0.1 10.0
0 0.1 10.0
0 0.1 10.0
0 0.1 10.0
0 0.1 10.0
0 0.1 10.0
0 0.1 10.0
0 0.1 10.0
0 0.1 10.0
0 0.1 10.0
0 0.1 10.0
0 0.1 10.0
0 0.1 10.0
0 0.1 10.0
0 0.1 10.0
0 0.1 10.0
0 0.1 10.0
0 0.1 10.0
0 0.1 10.0
0 0.1 10.0
0 0.1 10.0
0 0.1 10.0
0 0.1 10.0
0 0.1 10.0
0 0.1 10.0
0 0.1 10.0
0 0.1 10.0
0 0.1 10.0
0 0.1 10.0
0 0.1 10.0
0 0.1 10.0
0 0.1 10.0
0 0.1 10.0
0 0.1 10.0
0 0.1 10.0
0 0.1 10.0
0 0.1 10.0
0 0.1 10.0
0 0.1 10.0
0 0.1 10.0
0 0.1 10.0
0 0.1 10.0
0 0.1 10.0
0 0.1 10.0
0 0.1 10.0
0 0.1 10.0
0 0.1 10.0
0 0.1 10.0
0 0.1 10.0
0 0.1 10.0
0 0.1 10.0
0 0.1 10.0
0 0.1 10.0
0 0.1 10.0
0 0.1 10.0
0 0.1 10.0
0 0.1 10.0
0 0.1 10.0
0 0.1 10.0
0 0.1 10.0
0 0.1 10.0
0 0.1 10.0
0 0.1 10.0
0 0.1 10.0
0 0.1 10.0
0 0.1 10.0
0 0.1 10.0
0 0.1 10.0
0 0.1 10.0
0 0.1 10.0
0 0.1 10.0
0 0.1 10.0
0 0.1 10.0
0 0.1 10.0
0 0.1 10.0
0 0.1 10.0
0 0.1 10.0
0 0.1 10.0
0 0.1 10.0
0 0.1 10.0
0 0.1 10.0
0 0.1 10.0
0 0.1 10.0
0 0.1 10.0
0 0.1 10.0
0 0.1 10.0
0 0.1 10.0
0 0.1 10.0
0 0.1 10.0
0 0.1 10.0
0 0.1 10.0
0 0.1 10.0
0 0.1 10.0
0 0.1 10.0
0 0.1 10.0
0 0.1 10.0
0 0.1 10.0
0 0.1 10.0
0 0.1 10.0
0 0.1 10.0
k99
0
0
0
0
0
0
0
0
0
0
0
0
0
0
0
0
0
0
0
0
0
0
0
0
0
0
0
0
0
0
0
0
0
0
0
0
0
0
0
0
0
0
0
0
0
0
0
0
0
0
0
0
0
0
0
0
0
0
0
0
0
0
0
0
0
0
0
0
0
0
0
0
0
0
0
0
0
0
0
0
0
0
0
0
0
0
0
0
0
0
0
0
0
0
0
0
0
0
0
G0 100
0 0
1 0
2 0
3 0
4 0
5 0
6 0
7 0
8 0
9 0
10 0
11 0
12 0
13 0
14 0
15 0
16 0
17 0
18 0
19 0
20 0
21 0
22 0
23 0
24 0
25 0
26 0
27 0
28 0
29 0
30 0
31 0
32 0
33 0
34 0
35 0
36 0
37 0
38 0
39 0
40 0
41 0
42 0
43 0
44 0
45 0
46 0
47 0
48 0
49 0
50 0
51 0
52 0
53 0
54 0
55 0
56 0
57 0
58 0
59 0
60 0
61 0
62 0
63 0
64 0
65 0
66 0
67 0
68 0
69 0
70 0
71 0
72 0
73 0
74 0
75 0
76 0
77 0
78 0
79 0
80 0
81 0
82 0
83 0
84 0
85 0
86 0
87 0
88 0
89 0
90 0
91 0
92 0
93 0
94 0
95 0
96 0
97 0
98 0
99 0
